c FILE: i080-244

c SOURCE: From steinlib

c DESCRIPTION: Steinlib instance with 80 nodes and 632 edges.

p edge 80 632
e 1 4
e 1 11
e 1 17
e 1 20
e 1 21
e 1 32
e 1 34
e 1 40
e 1 45
e 1 49
e 1 50
e 1 57
e 1 61
e 1 67
e 1 74
e 2 11
e 2 12
e 2 20
e 2 23
e 2 25
e 2 28
e 2 29
e 2 31
e 2 37
e 2 43
e 2 49
e 2 56
e 2 70
e 2 74
e 2 76
e 2 77
e 3 8
e 3 23
e 3 30
e 3 39
e 3 46
e 3 51
e 3 54
e 3 56
e 3 57
e 3 61
e 3 62
e 3 64
e 3 66
e 3 67
e 3 77
e 4 8
e 4 11
e 4 12
e 4 17
e 4 20
e 4 21
e 4 29
e 4 32
e 4 37
e 4 38
e 4 40
e 4 41
e 4 43
e 4 52
e 4 60
e 4 72
e 4 73
e 4 78
e 5 14
e 5 27
e 5 28
e 5 41
e 5 46
e 5 49
e 5 50
e 5 53
e 5 57
e 5 63
e 5 75
e 5 78
e 5 80
e 6 13
e 6 15
e 6 20
e 6 26
e 6 30
e 6 41
e 6 44
e 6 49
e 6 52
e 6 56
e 6 68
e 6 72
e 6 80
e 7 20
e 7 22
e 7 24
e 7 37
e 7 49
e 7 58
e 7 60
e 7 62
e 7 67
e 7 69
e 7 70
e 7 74
e 8 9
e 8 11
e 8 15
e 8 16
e 8 18
e 8 24
e 8 25
e 8 34
e 8 35
e 8 44
e 8 51
e 8 56
e 8 66
e 8 72
e 9 11
e 9 13
e 9 18
e 9 23
e 9 25
e 9 29
e 9 30
e 9 44
e 9 48
e 9 52
e 9 58
e 9 63
e 9 65
e 9 69
e 9 70
e 9 79
e 9 80
e 10 27
e 10 39
e 10 46
e 10 57
e 10 69
e 10 70
e 10 78
e 11 22
e 11 23
e 11 30
e 11 36
e 11 38
e 11 48
e 11 50
e 11 61
e 11 63
e 11 64
e 11 66
e 11 69
e 11 70
e 11 72
e 11 75
e 11 79
e 12 17
e 12 18
e 12 23
e 12 27
e 12 31
e 12 32
e 12 40
e 12 49
e 12 52
e 12 54
e 12 56
e 12 62
e 12 67
e 12 71
e 12 75
e 12 76
e 12 79
e 13 18
e 13 20
e 13 24
e 13 27
e 13 29
e 13 43
e 13 48
e 13 55
e 13 56
e 13 65
e 13 66
e 13 69
e 13 70
e 13 75
e 13 78
e 14 22
e 14 26
e 14 38
e 14 50
e 14 51
e 14 53
e 14 63
e 14 70
e 14 77
e 15 17
e 15 22
e 15 23
e 15 25
e 15 34
e 15 42
e 15 50
e 15 54
e 15 55
e 15 60
e 15 61
e 15 62
e 15 65
e 15 68
e 15 75
e 15 77
e 16 21
e 16 29
e 16 31
e 16 37
e 16 38
e 16 39
e 16 45
e 16 46
e 16 48
e 16 50
e 16 53
e 16 56
e 16 60
e 16 63
e 16 67
e 16 73
e 16 74
e 17 19
e 17 20
e 17 26
e 17 30
e 17 39
e 17 41
e 17 42
e 17 48
e 17 61
e 17 64
e 17 69
e 17 70
e 17 73
e 18 26
e 18 36
e 18 39
e 18 66
e 18 68
e 18 73
e 18 76
e 18 78
e 19 20
e 19 21
e 19 25
e 19 38
e 19 42
e 19 50
e 19 52
e 19 58
e 19 62
e 19 75
e 19 76
e 19 77
e 19 78
e 20 27
e 20 35
e 20 38
e 20 40
e 20 54
e 20 57
e 20 70
e 20 71
e 20 72
e 20 77
e 20 80
e 21 26
e 21 28
e 21 29
e 21 34
e 21 41
e 21 42
e 21 43
e 21 51
e 21 54
e 21 56
e 21 57
e 21 70
e 21 79
e 22 31
e 22 33
e 22 39
e 22 45
e 22 54
e 22 55
e 22 56
e 22 64
e 22 73
e 22 74
e 23 29
e 23 33
e 23 35
e 23 39
e 23 41
e 23 42
e 23 44
e 23 45
e 23 53
e 23 55
e 23 58
e 23 60
e 23 61
e 23 64
e 23 69
e 23 77
e 23 79
e 24 25
e 24 27
e 24 35
e 24 44
e 24 50
e 24 51
e 24 54
e 24 62
e 24 64
e 24 72
e 24 73
e 24 77
e 25 37
e 25 38
e 25 39
e 25 40
e 25 42
e 25 43
e 25 47
e 25 62
e 25 68
e 26 29
e 26 38
e 26 39
e 26 51
e 26 60
e 26 72
e 26 74
e 26 77
e 26 78
e 27 37
e 27 39
e 27 42
e 27 53
e 27 66
e 27 68
e 27 71
e 27 72
e 27 74
e 27 80
e 28 34
e 28 46
e 28 48
e 28 52
e 28 59
e 28 70
e 28 72
e 28 74
e 28 76
e 28 77
e 28 79
e 29 43
e 29 46
e 29 49
e 29 54
e 29 58
e 29 62
e 29 70
e 29 76
e 29 80
e 30 35
e 30 61
e 30 62
e 30 63
e 30 64
e 30 70
e 30 72
e 30 75
e 30 76
e 31 32
e 31 33
e 31 34
e 31 52
e 31 54
e 31 56
e 31 58
e 31 59
e 31 60
e 31 63
e 31 77
e 31 80
e 32 37
e 32 47
e 32 59
e 32 65
e 32 75
e 32 76
e 32 78
e 33 37
e 33 44
e 33 45
e 33 47
e 33 49
e 33 58
e 33 62
e 33 65
e 33 71
e 33 75
e 33 76
e 33 77
e 33 79
e 34 38
e 34 39
e 34 43
e 34 50
e 34 52
e 34 57
e 34 63
e 34 66
e 34 71
e 34 78
e 34 79
e 35 40
e 35 47
e 35 56
e 35 57
e 35 59
e 36 45
e 36 58
e 36 61
e 36 71
e 36 80
e 37 39
e 37 43
e 37 45
e 37 47
e 37 51
e 37 55
e 37 61
e 37 62
e 37 68
e 37 71
e 37 79
e 38 39
e 38 40
e 38 54
e 38 70
e 38 78
e 39 46
e 39 64
e 39 71
e 39 75
e 39 76
e 39 77
e 39 79
e 40 51
e 40 61
e 40 69
e 40 73
e 41 44
e 41 50
e 41 51
e 41 58
e 41 59
e 41 64
e 41 67
e 42 43
e 42 49
e 42 52
e 42 53
e 42 64
e 42 70
e 42 71
e 42 80
e 43 44
e 43 47
e 43 48
e 43 54
e 43 56
e 43 57
e 43 59
e 43 63
e 43 68
e 43 69
e 43 73
e 43 74
e 43 80
e 44 45
e 44 46
e 44 50
e 44 59
e 44 64
e 44 67
e 44 73
e 44 75
e 45 46
e 45 48
e 45 65
e 45 67
e 45 70
e 45 73
e 45 78
e 46 52
e 46 60
e 46 62
e 46 65
e 46 68
e 46 72
e 46 77
e 47 58
e 47 59
e 47 63
e 47 76
e 48 56
e 48 59
e 48 61
e 48 64
e 48 66
e 48 75
e 49 51
e 49 55
e 49 60
e 49 65
e 49 66
e 49 70
e 49 80
e 50 55
e 50 59
e 50 62
e 50 63
e 50 67
e 50 72
e 50 73
e 50 80
e 51 60
e 51 62
e 51 68
e 51 76
e 52 54
e 52 56
e 52 60
e 52 62
e 52 68
e 52 69
e 52 75
e 53 54
e 53 58
e 53 68
e 53 75
e 53 77
e 54 58
e 54 59
e 54 71
e 54 73
e 55 56
e 55 60
e 55 61
e 55 65
e 55 66
e 55 72
e 55 73
e 55 77
e 56 58
e 56 64
e 57 60
e 57 65
e 57 67
e 57 68
e 57 73
e 57 74
e 57 80
e 58 60
e 58 63
e 58 64
e 58 66
e 58 77
e 58 78
e 58 80
e 59 62
e 60 68
e 60 69
e 60 72
e 60 74
e 61 63
e 61 65
e 61 73
e 61 74
e 61 78
e 61 80
e 62 79
e 63 65
e 63 70
e 63 75
e 63 77
e 64 71
e 65 66
e 65 67
e 65 69
e 65 71
e 65 73
e 66 67
e 66 71
e 66 74
e 67 76
e 68 70
e 68 76
e 69 70
e 69 71
e 69 73
e 69 76
e 69 78
e 70 73
e 70 75
e 72 78
e 72 79
e 73 74
e 73 80
e 74 75
e 74 76
e 75 76
e 75 77
e 75 80
e 76 77
e 76 79
e 76 80
e 77 78
e 79 80
